NAME: Random_65_3
ELLAPSED_TIME_(ms): 0
TOUR_SIZE: 1758.5245
TOUR_SECTION
0
24
20
54
15
33
14
11
18
62
9
49
27
22
43
17
25
47
40
44
13
23
35
51
31
53
21
29
58
30
42
4
10
34
64
50
63
37
32
2
7
39
1
28
6
48
59
36
52
45
12
56
57
16
19
26
5
61
8
41
60
46
55
3
38
0
EOF
